50, 876
2, 7
20, 25
25, 30
48, 53
39, 44
22, 27
16, 21
39, 44
29, 34
38, 43
37, 42
26, 31
25, 30
37, 42
30, 35
32, 37
34, 39
26, 31
8, 13
39, 44
44, 49
37, 42
49, 54
44, 49
30, 35
37, 42
31, 36
37, 42
46, 51
1, 6
23, 28
18, 23
32, 37
30, 35
45, 50
1, 6
47, 52
7, 12
47, 52
28, 33
46, 51
26, 31
26, 31
41, 46
29, 34
5, 10
26, 31
12, 17
40, 45
46, 51
